data;


param d:= 100;
param r:=5;
param p:=0.700000;
param M:=1000;
param U:=
         1         1        5.243068e-01
         2         1        3.708901e-01
         3         1       -1.839192e-01
         4         1       -7.944186e-01
         5         1       -7.962368e-02
         6         1       -7.872695e-02
         7         1       -6.877735e-01
         8         1        7.309013e-02
         9         1       -1.389289e+00
        10         1       -4.484620e-01
        11         1        1.684250e+00
        12         1       -3.139203e-02
        13         1       -1.530690e+00
        14         1       -4.950082e-01
        15         1        8.039000e-01
        16         1        7.964468e-01
        17         1        6.642007e-01
        18         1       -6.256537e-02
        19         1        1.475939e+00
        20         1        3.849381e-01
        21         1       -7.025481e-01
        22         1       -5.780617e-01
        23         1        1.441616e-01
        24         1       -1.226484e+00
        25         1        2.218074e-01
        26         1       -7.948744e-01
        27         1        2.587399e+00
        28         1       -8.096847e-01
        29         1        7.495763e-02
        30         1       -6.664874e-01
        31         1        1.045600e+00
        32         1        2.118759e+00
        33         1       -1.082333e+00
        34         1       -5.798023e-02
        35         1       -1.315030e+00
        36         1       -5.632491e-02
        37         1        2.058065e-01
        38         1        6.180290e-01
        39         1        2.021296e+00
        40         1        1.022477e-01
        41         1        7.802120e-01
        42         1        5.931093e-01
        43         1        1.466779e+00
        44         1       -1.696023e+00
        45         1        2.134870e+00
        46         1       -1.287277e+00
        47         1        7.677969e-01
        48         1        5.746869e-01
        49         1       -6.489466e-02
        50         1        4.961170e-01
        51         1       -9.243257e-02
        52         1       -6.429280e-01
        53         1       -8.888937e-01
        54         1       -1.101618e+00
        55         1       -1.107136e+00
        56         1       -1.398400e+00
        57         1       -4.197961e-01
        58         1        7.208825e-01
        59         1       -8.052686e-01
        60         1       -4.601094e-02
        61         1       -1.202409e+00
        62         1       -8.313512e-01
        63         1        8.909194e-01
        64         1       -8.383679e-01
        65         1        8.590052e-01
        66         1       -7.113727e-01
        67         1       -4.701679e-01
        68         1       -2.083024e+00
        69         1        1.781042e+00
        70         1       -1.892379e+00
        71         1       -3.876203e-02
        72         1       -4.358712e-01
        73         1        6.509973e-01
        74         1       -1.238186e+00
        75         1       -3.305516e-02
        76         1        1.458859e+00
        77         1        2.426325e-01
        78         1        2.644995e-01
        79         1       -7.527866e-02
        80         1       -1.365664e+00
        81         1       -1.525736e+00
        82         1        1.528985e-01
        83         1        1.179587e+00
        84         1        1.609675e+00
        85         1       -6.916709e-01
        86         1        1.176632e-01
        87         1       -2.075447e-01
        88         1       -2.023281e-01
        89         1        8.104510e-01
        90         1        1.743957e+00
        91         1        1.527177e+00
        92         1       -9.534518e-02
        93         1       -4.729877e-02
        94         1        3.425049e-02
        95         1       -6.043515e-01
        96         1        4.182186e-01
        97         1        1.025306e+00
        98         1       -5.657721e-01
        99         1       -1.299197e+00
       100         1       -5.128551e-01
         1         2        2.058953e-01
         2         2        4.667629e-01
         3         2       -1.359509e+00
         4         2       -1.630999e+00
         5         2        6.643729e-01
         6         2        3.681335e-01
         7         2       -3.214974e-02
         8         2        1.911447e+00
         9         2        1.350512e+00
        10         2       -6.877881e-01
        11         2        9.545297e-01
        12         2        4.715231e-01
        13         2       -8.713507e-01
        14         2        1.627043e+00
        15         2       -2.586581e-02
        16         2       -5.133209e-01
        17         2        5.964659e-01
        18         2       -3.173365e-03
        19         2       -2.845137e-01
        20         2       -3.229215e-01
        21         2       -9.139776e-01
        22         2        1.016596e+00
        23         2       -9.720605e-01
        24         2       -1.103006e+00
        25         2        1.701376e-01
        26         2        1.381468e+00
        27         2       -1.198815e-01
        28         2        2.233638e+00
        29         2        1.158112e-02
        30         2       -1.396280e+00
        31         2       -9.015697e-01
        32         2        5.089131e-01
        33         2        1.034026e+00
        34         2       -2.643099e-02
        35         2        1.224983e+00
        36         2       -3.575189e-02
        37         2       -6.133261e-01
        38         2       -4.772066e-01
        39         2       -5.102893e-01
        40         2        5.943569e-01
        41         2        1.719282e+00
        42         2       -1.695333e+00
        43         2        9.019332e-01
        44         2        1.399926e+00
        45         2       -1.754639e-01
        46         2        7.869773e-01
        47         2        2.761057e-01
        48         2        6.601750e-01
        49         2        2.040863e+00
        50         2        7.342229e-01
        51         2       -3.633569e-02
        52         2       -2.501761e-01
        53         2        1.016047e+00
        54         2       -2.705114e-01
        55         2       -1.137403e+00
        56         2        1.567554e-01
        57         2        2.224787e-01
        58         2       -9.688049e-01
        59         2       -1.944076e+00
        60         2       -2.253038e+00
        61         2       -3.120956e-01
        62         2        6.040864e-01
        63         2       -2.262411e-01
        64         2        7.271695e-01
        65         2        4.310088e-01
        66         2       -3.707668e-01
        67         2       -9.482565e-01
        68         2       -1.147651e+00
        69         2        2.027556e+00
        70         2       -6.993748e-01
        71         2       -1.815437e-02
        72         2       -9.103321e-01
        73         2        2.777574e-01
        74         2        2.828213e-01
        75         2        2.444220e-01
        76         2       -3.287764e-01
        77         2       -1.803163e+00
        78         2       -4.910598e-01
        79         2       -1.789011e-01
        80         2       -5.784466e-01
        81         2       -8.043254e-01
        82         2       -6.905650e-01
        83         2       -1.389495e+00
        84         2       -6.491637e-01
        85         2       -8.471726e-01
        86         2        4.232244e-01
        87         2        6.502086e-02
        88         2        5.279023e-01
        89         2       -1.496133e+00
        90         2        1.135546e-01
        91         2       -3.057233e-01
        92         2       -3.270964e-01
        93         2       -1.438576e+00
        94         2        1.377018e+00
        95         2        5.753167e-01
        96         2       -1.155738e+00
        97         2       -2.955362e-01
        98         2       -5.450595e-02
        99         2       -1.771986e+00
       100         2        1.562868e+00
         1         3       -1.328511e+00
         2         3        7.314229e-01
         3         3       -3.032844e+00
         4         3        1.326113e-01
         5         3        9.894081e-01
         6         3        3.963636e-01
         7         3        1.117749e+00
         8         3        3.558228e-01
         9         3        1.175294e+00
        10         3       -2.611104e+00
        11         3       -1.068017e+00
        12         3        1.708314e-01
        13         3       -6.060498e-01
        14         3        5.543648e-01
        15         3       -8.903392e-01
        16         3       -8.668633e-01
        17         3        1.920722e+00
        18         3        3.566559e-01
        19         3        2.042617e-01
        20         3       -4.218411e-01
        21         3        9.149347e-01
        22         3        1.940536e+00
        23         3       -4.627305e-01
        24         3        4.236300e-01
        25         3       -3.354182e-01
        26         3       -5.812491e-02
        27         3       -5.404858e-02
        28         3       -2.118869e+00
        29         3       -5.767531e-01
        30         3       -6.527089e-01
        31         3        5.364157e-01
        32         3        2.031505e-01
        33         3       -7.920413e-01
        34         3       -2.744390e+00
        35         3        9.616405e-02
        36         3        1.346913e+00
        37         3        1.464929e+00
        38         3       -2.105266e-01
        39         3        6.188270e-01
        40         3        1.256711e+00
        41         3        5.725983e-01
        42         3        1.555770e+00
        43         3        1.648607e+00
        44         3        1.080343e+00
        45         3       -8.409039e-01
        46         3        3.581390e-01
        47         3        1.459909e-01
        48         3       -1.252286e+00
        49         3        1.060459e-01
        50         3        1.045393e+00
        51         3       -1.950953e-01
        52         3        6.665289e-01
        53         3        7.144471e-01
        54         3        8.993644e-01
        55         3       -7.723056e-01
        56         3       -5.145710e-01
        57         3       -8.246465e-02
        58         3       -1.003501e+00
        59         3       -1.052734e+00
        60         3       -2.258925e-01
        61         3        1.361360e+00
        62         3       -5.714177e-01
        63         3       -3.701631e-01
        64         3        2.916826e-01
        65         3        9.684690e-02
        66         3       -2.764119e-01
        67         3       -1.221264e-01
        68         3       -1.265160e+00
        69         3       -3.771378e-02
        70         3       -1.166087e+00
        71         3       -3.015873e-01
        72         3       -1.337558e+00
        73         3        1.805488e+00
        74         3       -9.439653e-01
        75         3        1.162703e-01
        76         3        6.644023e-01
        77         3        9.858852e-01
        78         3        1.892486e+00
        79         3        5.800052e-01
        80         3        1.004251e+00
        81         3        2.757830e+00
        82         3       -1.345548e+00
        83         3        1.458161e+00
        84         3       -2.365252e-01
        85         3       -4.137406e-01
        86         3       -1.136437e+00
        87         3        1.694448e-01
        88         3        9.299609e-02
        89         3        1.249872e-01
        90         3        1.092759e+00
        91         3        3.149293e-01
        92         3        5.107422e-01
        93         3        9.259439e-01
        94         3        1.467701e+00
        95         3       -1.162995e+00
        96         3        6.734548e-01
        97         3        1.859992e-01
        98         3        4.256407e-01
        99         3       -6.975391e-01
       100         3        7.961892e-01
         1         4       -1.427815e+00
         2         4       -1.508200e+00
         3         4       -9.697114e-01
         4         4       -1.599930e-01
         5         4       -2.411339e-01
         6         4       -1.287685e+00
         7         4        1.154301e+00
         8         4       -1.673889e-01
         9         4        4.445888e-01
        10         4       -9.936084e-01
        11         4       -4.348684e-02
        12         4       -2.986580e-01
        13         4        1.398285e+00
        14         4        1.188455e+00
        15         4        6.101686e-01
        16         4        1.590053e+00
        17         4        8.529440e-03
        18         4       -2.594605e-01
        19         4       -1.454456e+00
        20         4       -6.586097e-01
        21         4        2.433788e-01
        22         4        1.097103e+00
        23         4        1.582966e+00
        24         4       -6.302521e-01
        25         4        1.352464e+00
        26         4        1.446455e+00
        27         4        6.625494e-01
        28         4        7.890064e-01
        29         4        9.008871e-02
        30         4        1.926636e+00
        31         4       -1.313117e+00
        32         4       -5.186103e-02
        33         4       -2.422050e-01
        34         4        5.354542e-01
        35         4       -9.245794e-02
        36         4       -8.134636e-01
        37         4       -1.061286e+00
        38         4       -8.766388e-02
        39         4        8.825266e-02
        40         4        7.697332e-01
        41         4        1.417931e+00
        42         4       -7.321255e-01
        43         4       -2.612117e-01
        44         4        8.976581e-02
        45         4       -2.380161e-01
        46         4       -8.615538e-01
        47         4       -3.358626e-02
        48         4        2.130850e-01
        49         4       -1.220452e-01
        50         4       -1.228006e+00
        51         4       -5.824431e-01
        52         4        7.114268e-01
        53         4        1.512618e+00
        54         4       -5.570356e-02
        55         4        2.311192e-01
        56         4        5.992463e-01
        57         4       -1.776156e+00
        58         4       -2.945838e-01
        59         4        8.684096e-01
        60         4        5.921491e-02
        61         4        4.750383e-01
        62         4        7.424683e-02
        63         4        4.642303e-01
        64         4        1.142753e+00
        65         4        2.097251e-01
        66         4        1.765400e-01
        67         4       -1.706355e-01
        68         4       -6.623721e-01
        69         4       -1.570163e+00
        70         4       -4.699604e-01
        71         4        7.597068e-01
        72         4       -3.775368e-01
        73         4        8.874371e-01
        74         4       -1.640166e+00
        75         4        1.608711e+00
        76         4       -7.225498e-01
        77         4        1.291961e+00
        78         4        2.388552e-01
        79         4        5.135103e-01
        80         4       -7.038575e-01
        81         4       -1.094697e+00
        82         4       -2.389941e-01
        83         4        1.495452e+00
        84         4        5.042905e-01
        85         4       -4.006304e-01
        86         4        1.046721e-01
        87         4       -8.249967e-01
        88         4        3.010755e-01
        89         4       -2.792309e-01
        90         4       -6.054483e-02
        91         4       -4.918326e-01
        92         4       -9.036776e-02
        93         4        7.712442e-02
        94         4        5.243766e-01
        95         4       -6.525271e-01
        96         4        3.841997e-01
        97         4       -1.708432e+00
        98         4        3.413982e-01
        99         4        2.757471e-02
       100         4        4.070676e-01
         1         5        1.710697e-01
         2         5       -5.534446e-01
         3         5       -1.984673e+00
         4         5        3.463418e-01
         5         5        1.135240e+00
         6         5       -2.830298e+00
         7         5       -8.332303e-01
         8         5        7.825613e-01
         9         5       -9.792094e-01
        10         5        1.739375e+00
        11         5       -1.257638e+00
        12         5        2.401097e-01
        13         5        1.306245e+00
        14         5        2.012774e-01
        15         5       -5.321363e-01
        16         5        4.916477e-02
        17         5       -1.315616e+00
        18         5       -1.039642e+00
        19         5        6.197134e-01
        20         5        9.431900e-01
        21         5        1.928713e+00
        22         5       -1.068042e+00
        23         5       -1.637240e-01
        24         5       -5.182661e-01
        25         5        9.828144e-01
        26         5        6.177765e-01
        27         5        8.273895e-01
        28         5       -2.762666e-01
        29         5       -5.536663e-01
        30         5       -6.664565e-01
        31         5       -5.033489e-01
        32         5       -4.460216e-01
        33         5        1.112189e+00
        34         5        3.239978e-01
        35         5        1.271137e+00
        36         5        5.723791e-01
        37         5       -1.276721e+00
        38         5       -7.779375e-01
        39         5       -1.302652e+00
        40         5        7.581076e-01
        41         5        8.782259e-01
        42         5        4.406221e-01
        43         5        3.271503e-01
        44         5        3.992496e-01
        45         5       -1.382871e+00
        46         5        5.728790e-01
        47         5       -3.665476e-01
        48         5        6.561085e-01
        49         5        1.856820e+00
        50         5       -8.028640e-01
        51         5        4.569822e-01
        52         5        2.546773e+00
        53         5       -1.392791e-01
        54         5        5.094849e-01
        55         5        5.516576e-01
        56         5       -5.341562e-01
        57         5       -2.248097e-01
        58         5        7.816395e-01
        59         5        4.833984e-01
        60         5        8.789033e-01
        61         5       -6.611387e-01
        62         5       -2.102627e+00
        63         5       -7.374155e-01
        64         5       -9.925475e-01
        65         5       -3.669528e-01
        66         5        4.537973e-01
        67         5        4.832494e-01
        68         5        5.195435e-02
        69         5        2.395282e-01
        70         5       -1.393495e+00
        71         5       -4.014375e-01
        72         5       -1.154041e-01
        73         5        1.113220e+00
        74         5        7.035594e-01
        75         5        2.697891e-01
        76         5       -4.310410e-01
        77         5       -2.152686e+00
        78         5        1.245572e+00
        79         5        3.005456e-01
        80         5        1.081978e+00
        81         5       -1.906869e-01
        82         5       -1.414007e+00
        83         5        9.786346e-02
        84         5        9.120499e-01
        85         5       -8.905598e-01
        86         5        1.174450e+00
        87         5       -2.585981e+00
        88         5       -6.090804e-01
        89         5       -7.982658e-01
        90         5        3.185693e-01
        91         5        1.510966e+00
        92         5        1.312067e+00
        93         5        8.703941e-01
        94         5        9.553170e-01
        95         5        5.447961e-01
        96         5        1.095036e+00
        97         5        1.830746e+00
        98         5       -1.776515e+00
        99         5       -6.167954e-01
       100         5       -2.990233e-01
;

param theta:=
    1       -8.365392e-01
    2       -7.563730e-01
    3       -9.703549e-02
    4       -1.595088e+00
    5        2.003557e-01
;
param X_true:=
    1        1.846341e+00
    2        1.560540e+00
    3        2.625579e+00
    4        2.209932e+00
    5        8.016845e-02
    6        1.235854e+00
    7       -1.516948e+00
    8       -1.117646e+00
    9       -8.786903e-01
   10        3.082136e+00
   11       -2.209896e+00
   12        1.775295e-01
   13        2.968281e-02
   14       -2.725713e+00
   15       -1.646424e+00
   16       -2.720304e+00
   17       -1.470355e+00
   18        2.256944e-01
   19        1.404844e+00
   20        1.202680e+00
   21        1.188454e+00
   22       -2.437618e+00
   23       -1.898228e+00
   24        2.720649e+00
   25       -2.242076e+00
   26       -2.557769e+00
   27       -2.959594e+00
   28       -2.120411e+00
   29       -2.701287e-01
   30       -1.529695e+00
   31        1.748873e+00
   32       -2.183706e+00
   33        8.093329e-01
   34       -4.543840e-01
   35        5.663564e-01
   36        1.355687e+00
   37        1.586634e+00
   38       -1.516635e-01
   39       -1.766737e+00
   40       -1.732936e+00
   41       -4.094426e+00
   42        1.891266e+00
   43       -1.586988e+00
   44        1.918996e-01
   45       -1.468998e+00
   46        1.935890e+00
   47       -8.851643e-01
   48       -1.067005e+00
   49       -9.329599e-01
   50        7.261104e-01
   51        1.144345e+00
   52        3.785654e-02
   53       -2.534906e+00
   54        1.229814e+00
   55        1.603277e+00
   56        3.831054e-02
   57        2.978983e+00
   58        8.535995e-01
   59        9.579005e-01
   60        1.846187e+00
   61        2.196323e-01
   62       -2.457125e-01
   63       -1.426481e+00
   64       -1.898641e+00
   65       -1.462044e+00
   66        7.116751e-01
   67        1.491400e+00
   68        3.800300e+00
   69       -4.673031e-01
   70        2.695623e+00
   71       -1.216807e+00
   72        1.762047e+00
   73       -2.122370e+00
   74        3.670642e+00
   75       -2.680485e+00
   76        2.998296e-02
   77       -1.426867e+00
   78       -1.649156e-01
   79       -6.168694e-01
   80        2.821999e+00
   81        3.325034e+00
   82        6.228973e-01
   83       -2.443056e+00
   84       -1.454248e+00
   85        1.720148e+00
   86       -2.399241e-01
   87        9.058231e-01
   88       -8.413341e-01
   89        7.269932e-01
   90       -1.490413e+00
   91        1.038503e-02
   92        6.846314e-01
   93        1.089186e+00
   94       -1.857633e+00
   95        1.333252e+00
   96        6.552829e-02
   97        2.439678e+00
   98       -4.272799e-01
   99        2.327235e+00
  100       -1.539566e+00
;
param X:=
    1       -9.649209e-01
    2       -1.449935e-01
    3       -6.319480e-01
    4        9.570628e-01
    5        5.437680e-01
    6        1.235854e+00
    7        1.800548e+00
    8        4.503966e-01
    9       -8.786903e-01
   10        8.982980e-02
   11       -2.209896e+00
   12        1.775295e-01
   13       -5.818920e-01
   14        1.372481e+00
   15       -1.646424e+00
   16       -1.887879e-01
   17       -5.140948e-01
   18        2.256944e-01
   19       -1.870041e-01
   20        1.665026e-01
   21        3.264403e-01
   22       -2.437618e+00
   23       -1.898228e+00
   24        1.504323e+00
   25        4.440103e-01
   26        1.524901e+00
   27        1.495440e+00
   28        6.470712e-01
   29       -2.472622e+00
   30        3.238182e-01
   31       -1.185783e+00
   32       -2.333943e-01
   33        3.388818e-01
   34       -1.706120e+00
   35        5.663564e-01
   36        1.355687e+00
   37        6.288197e-01
   38        1.014837e-01
   39       -1.766737e+00
   40       -1.322247e+00
   41        1.052758e+00
   42        1.891266e+00
   43       -1.039107e+00
   44        1.675785e-01
   45        2.907316e-01
   46       -2.765020e-02
   47       -8.851643e-01
   48        4.420854e-01
   49        1.502225e+00
   50        2.066415e+00
   51       -1.004020e-01
   52        3.785654e-02
   53        4.801547e-01
   54        8.030111e-01
   55        8.271987e-01
   56        1.529839e+00
   57        1.013573e+00
   58        8.535995e-01
   59       -1.424594e+00
   60       -2.562260e-02
   61        2.196323e-01
   62        9.802246e-02
   63       -1.426481e+00
   64       -1.898641e+00
   65        1.727062e+00
   66       -1.317244e+00
   67        1.491400e+00
   68        3.800300e+00
   69       -4.673031e-01
   70       -1.195132e+00
   71       -1.461147e+00
   72        1.884803e+00
   73        8.966008e-01
   74        6.512929e-01
   75        1.631690e+00
   76       -1.196989e+00
   77       -1.459725e+00
   78        1.637548e+00
   79       -1.581326e-01
   80        2.821999e+00
   81       -1.056531e+00
   82        6.228973e-01
   83       -2.443056e+00
   84       -1.454248e+00
   85        1.720148e+00
   86       -2.399241e-01
   87        1.421233e+00
   88       -4.421992e-01
   89        6.451389e-01
   90        2.580433e+00
   91       -5.365304e-01
   92        6.846314e-01
   93        1.303506e+00
   94        8.828577e-01
   95        1.868993e-01
   96        8.490257e-01
   97       -1.837092e+00
   98       -1.696289e-01
   99        2.327235e+00
  100       -1.539566e+00
;
param outliervec:=
    1    1
    2    1
    3    1
    4    1
    5    1
    6    0
    7    1
    8    1
    9    0
   10    1
   11    0
   12    0
   13    1
   14    1
   15    0
   16    1
   17    1
   18    0
   19    1
   20    1
   21    1
   22    0
   23    0
   24    1
   25    1
   26    1
   27    1
   28    1
   29    1
   30    1
   31    1
   32    1
   33    1
   34    1
   35    0
   36    0
   37    1
   38    1
   39    0
   40    1
   41    1
   42    0
   43    1
   44    1
   45    1
   46    1
   47    0
   48    1
   49    1
   50    1
   51    1
   52    0
   53    1
   54    1
   55    1
   56    1
   57    1
   58    0
   59    1
   60    1
   61    0
   62    1
   63    0
   64    0
   65    1
   66    1
   67    0
   68    0
   69    0
   70    1
   71    1
   72    1
   73    1
   74    1
   75    1
   76    1
   77    1
   78    1
   79    1
   80    0
   81    1
   82    0
   83    0
   84    0
   85    0
   86    0
   87    1
   88    1
   89    1
   90    1
   91    1
   92    0
   93    1
   94    1
   95    1
   96    1
   97    1
   98    1
   99    0
  100    0
;